Cost: 463
0-19-14-11-38-10-0
0-26-12-40-17-0
0-35-8-46-34-4-0
0-33-22-42-41-23-49-16-0
0-29-5-37-15-13-27-0
0-9-32-44-3-6-0
0-30-48-21-28-2-0
Cost: 463
0-19-14-11-38-10-0
0-26-12-40-17-0
0-35-8-46-34-4-0
0-33-22-42-41-23-49-16-0
0-29-5-37-15-13-27-0
0-9-32-44-3-6-0
0-30-48-21-28-2-0
Cost: 463
0-19-14-11-38-10-0
0-26-12-40-17-0
0-35-8-46-34-4-0
0-33-22-42-41-23-49-16-0
0-29-5-37-15-13-27-0
0-9-32-44-3-6-0
0-30-48-21-28-2-0
Cost: 463
0-19-14-11-38-10-0
0-26-12-40-17-0
0-35-8-46-34-4-0
0-33-22-42-41-23-49-16-0
0-29-5-37-15-13-27-0
0-9-32-44-3-6-0
0-30-48-21-28-2-0
Cost: 463
0-19-14-11-38-10-0
0-26-12-40-17-0
0-35-8-46-34-4-0
0-33-22-42-41-23-49-16-0
0-29-5-37-15-13-27-0
0-9-32-44-3-6-0
0-30-48-21-28-2-0
Cost: 463
0-19-14-11-38-10-0
0-26-12-40-17-0
0-35-8-46-34-4-0
0-33-22-42-41-23-49-16-0
0-29-5-37-15-13-27-0
0-9-32-44-3-6-0
0-30-48-21-28-2-0
Cost: 463
0-19-14-11-38-10-0
0-26-12-40-17-0
0-35-8-46-34-4-0
0-33-22-42-41-23-49-16-0
0-29-5-37-15-13-27-0
0-9-32-44-3-6-0
0-30-48-21-28-2-0
Cost: 463
0-19-14-11-38-10-0
0-26-12-40-17-0
0-35-8-46-34-4-0
0-33-22-42-41-23-49-16-0
0-29-5-37-15-13-27-0
0-9-32-44-3-6-0
0-30-48-21-28-2-0
Cost: 463
0-19-14-11-38-10-0
0-26-12-40-17-0
0-35-8-46-34-4-0
0-33-22-42-41-23-49-16-0
0-29-5-37-15-13-27-0
0-9-32-44-3-6-0
0-30-48-21-28-2-0
Cost: 463
0-19-14-11-38-10-0
0-26-12-40-17-0
0-35-8-46-34-4-0
0-33-22-42-41-23-49-16-0
0-29-5-37-15-13-27-0
0-9-32-44-3-6-0
0-30-48-21-28-2-0
Cost: 463
0-30-48-21-28-2-0
0-27-13-15-37-5-29-0
0-26-12-40-17-0
0-4-34-46-35-7-0
0-16-49-23-41-42-22-33-0
0-19-14-11-38-10-0
0-6-3-44-32-9-0
Cost: 463
0-30-48-21-28-2-0
0-27-13-15-37-5-29-0
0-26-12-40-17-0
0-4-34-46-35-7-0
0-16-49-23-41-42-22-33-0
0-19-14-11-38-10-0
0-6-3-44-32-9-0
Cost: 463
0-30-48-21-28-2-0
0-27-13-15-37-5-29-0
0-26-12-40-17-0
0-4-34-46-35-7-0
0-16-49-23-41-42-22-33-0
0-19-14-11-38-10-0
0-6-3-44-32-9-0
Cost: 463
0-2-28-21-48-30-0
0-27-13-15-37-5-29-0
0-26-12-40-17-0
0-6-3-44-32-9-0
0-35-8-46-34-4-0
0-19-14-11-38-10-0
0-16-49-23-41-42-22-33-0
Cost: 463
0-30-48-21-28-2-0
0-27-13-15-37-5-29-0
0-26-12-40-17-0
0-4-34-46-35-7-0
0-16-49-23-41-42-22-33-0
0-19-14-11-38-10-0
0-6-3-44-32-9-0
Cost: 463
0-30-48-21-28-2-0
0-27-13-15-37-5-29-0
0-26-12-40-17-0
0-4-34-46-35-7-0
0-16-49-23-41-42-22-33-0
0-19-14-11-38-10-0
0-6-3-44-32-9-0
Cost: 463
0-30-48-21-28-2-0
0-27-13-15-37-5-29-0
0-26-12-40-17-0
0-4-34-46-35-7-0
0-16-49-23-41-42-22-33-0
0-19-14-11-38-10-0
0-6-3-44-32-9-0
Cost: 463
0-35-8-46-34-4-0
0-16-49-23-41-42-22-33-0
0-29-5-37-15-13-27-0
0-2-28-21-48-30-0
0-17-40-12-26-0
0-19-14-11-38-10-0
0-9-32-44-3-6-0
Cost: 463
0-35-8-46-34-4-0
0-26-12-40-17-0
0-33-22-42-41-23-49-16-0
0-9-32-44-3-6-0
0-27-13-15-37-5-29-0
0-10-38-11-14-19-0
0-2-28-21-48-30-0
Cost: 463
0-35-8-46-34-4-0
0-26-12-40-17-0
0-33-22-42-41-23-49-16-0
0-9-32-44-3-6-0
0-27-13-15-37-5-29-0
0-10-38-11-14-19-0
0-2-28-21-48-30-0
Cost: 463
0-27-13-15-37-5-29-0
0-2-28-21-48-30-0
0-6-3-44-32-9-0
0-17-40-12-26-0
0-16-49-23-41-42-22-33-0
0-19-14-11-38-10-0
0-35-8-46-34-4-0
Cost: 463
0-27-13-15-37-5-29-0
0-2-28-21-48-30-0
0-6-3-44-32-9-0
0-17-40-12-26-0
0-16-49-23-41-42-22-33-0
0-19-14-11-38-10-0
0-35-8-46-34-4-0
Cost: 463
0-9-32-44-3-6-0
0-7-35-46-34-4-0
0-10-38-11-14-19-0
0-2-28-21-48-30-0
0-27-13-15-37-5-29-0
0-16-49-23-41-42-22-33-0
0-17-40-12-26-0
Cost: 463
0-27-13-15-37-5-29-0
0-2-28-21-48-30-0
0-6-3-44-32-9-0
0-17-40-12-26-0
0-16-49-23-41-42-22-33-0
0-19-14-11-38-10-0
0-35-8-46-34-4-0
Cost: 463
0-35-8-46-34-4-0
0-16-49-23-41-42-22-33-0
0-29-5-37-15-13-27-0
0-2-28-21-48-30-0
0-17-40-12-26-0
0-19-14-11-38-10-0
0-9-32-44-3-6-0
Cost: 463
0-35-8-46-34-4-0
0-26-12-40-17-0
0-33-22-42-41-23-49-16-0
0-9-32-44-3-6-0
0-27-13-15-37-5-29-0
0-10-38-11-14-19-0
0-2-28-21-48-30-0
Cost: 463
0-16-49-23-41-42-22-33-0
0-35-8-46-34-4-0
0-26-12-40-17-0
0-9-32-44-3-6-0
0-30-48-21-28-2-0
0-10-38-11-14-19-0
0-27-13-15-37-5-29-0
Cost: 463
0-17-40-12-26-0
0-9-32-44-3-6-0
0-2-28-21-48-30-0
0-10-38-11-14-19-0
0-16-49-23-41-42-22-33-0
0-27-13-15-37-5-29-0
0-7-35-46-34-4-0
Cost: 463
0-27-13-15-37-5-29-0
0-33-22-42-41-23-49-16-0
0-10-38-11-14-19-0
0-2-28-21-48-30-0
0-9-32-44-3-6-0
0-4-34-46-35-7-26-0
0-12-40-17-0
Cost: 463
0-19-14-11-38-10-0
0-4-34-46-8-35-0
0-26-12-40-17-0
0-2-28-21-48-30-0
0-29-5-37-15-13-27-0
0-33-22-42-41-23-49-16-0
0-9-32-44-3-6-0
Cost: 463
0-26-7-35-46-34-4-0
0-2-28-21-48-30-0
0-19-14-11-38-10-0
0-12-40-17-0
0-6-3-44-32-9-0
0-16-49-23-41-42-22-33-0
0-27-13-15-37-5-29-0
